sifdecoder -A pc64.lnx.gfo -st   PORTSNQP

 Problem name: PORTSNQP

 Double precision version will be formed

 The objective function uses 100001 nonlinear groups
 
 There are 2 linear equality constraints
 
 There are 100000 variables bounded only from below 
 
 
 File successfully decoded
 CUTEST: tools (double precision version) compiled successfully
 CUTEst: ipopt (double precision version) compiled successfully

******************************************************************************
This program contains Ipopt, a library for large-scale nonlinear optimization.
 Ipopt is released as open source code under the Eclipse Public License (EPL).
         For more information visit http://projects.coin-or.org/Ipopt
******************************************************************************

This is Ipopt version trunk, running with linear solver ma57.

Number of nonzeros in equality constraint Jacobian...:   199999
Number of nonzeros in inequality constraint Jacobian.:        0
Number of nonzeros in Lagrangian Hessian.............:   100000

Total number of variables............................:   100000
                     variables with only lower bounds:   100000
                variables with lower and upper bounds:        0
                     variables with only upper bounds:        0
Total number of equality constraints.................:        2
Total number of inequality constraints...............:        0
        inequality constraints with only lower bounds:        0
   inequality constraints with lower and upper bounds:        0
        inequality constraints with only upper bounds:        0

iter    objective    inf_pr   inf_du lg(mu)  ||d||  lg(rg) alpha_du alpha_pr  ls
   0  5.8331833e+04 5.00e+04 2.00e+00  -1.0 0.00e+00    -  0.00e+00 0.00e+00   0
   1  3.3334448e+04 5.00e+02 6.98e-02  -1.0 5.00e-01    -  9.43e-01 9.90e-01h  1
   2  3.3332158e+04 4.67e+00 2.05e+01  -1.0 2.07e-01   2.0 1.00e+00 9.91e-01h  1
   3  3.3332334e+04 4.65e+00 2.69e+02  -1.0 1.30e+02    -  9.18e-02 3.20e-03f  1
   4  3.3332334e+04 4.64e+00 2.48e+03  -1.0 1.17e+00    -  1.00e+00 3.53e-03h  1
   5  3.3332333e+04 3.88e-14 1.00e-06  -1.0 7.99e-05    -  1.00e+00 1.00e+00h  1
   6  3.3332333e+04 3.56e-15 9.29e+00  -3.8 1.60e-07    -  9.98e-01 1.00e+00f  1
   7  3.3332333e+04 2.90e-15 1.50e-09  -3.8 2.95e-04    -  1.00e+00 1.00e+00f  1
   8  3.3332333e+04 5.84e-15 1.85e-11  -5.7 1.42e-06    -  1.00e+00 1.00e+00f  1
   9  3.3332333e+04 4.97e-15 9.71e-03  -8.6 7.25e-06    -  9.86e-01 1.00e+00f  1
iter    objective    inf_pr   inf_du lg(mu)  ||d||  lg(rg) alpha_du alpha_pr  ls
  10  3.3332333e+04 7.92e-15 4.78e-04  -8.6 1.43e-05   1.5 1.00e+00 1.00e+00f  1
  11  3.3332333e+04 7.59e-15 4.32e-04  -8.6 3.89e-05   1.0 1.00e+00 1.00e+00f  1
  12  3.3332333e+04 1.61e-14 4.99e-04  -8.6 1.33e-04   0.6 7.74e-01 1.00e+00f  1
  13  3.3332333e+04 2.09e-14 6.41e-04  -8.6 6.49e-05   1.0 1.00e+00 1.00e+00f  1
  14  3.3332333e+04 1.28e-14 1.59e-03  -8.6 4.81e-04   0.5 5.22e-01 1.00e+00f  1
  15  3.3332333e+04 1.43e-14 2.07e-03  -8.6 2.36e-04   0.9 1.00e+00 1.00e+00f  1
  16  3.3332333e+04 1.29e-14 6.51e-03  -8.6 2.22e-03   0.5 4.07e-01 1.00e+00f  1
  17  3.3332333e+04 5.90e-15 8.76e-03  -8.6 1.12e-03   0.9 1.00e+00 1.00e+00f  1
  18  3.3332333e+04 5.64e-15 3.78e-02  -8.6 1.45e-02   0.4 2.77e-01 1.00e+00f  1
  19  3.3332333e+04 3.71e-15 5.32e-02  -8.6 7.66e-03   0.8 1.00e+00 1.00e+00f  1
iter    objective    inf_pr   inf_du lg(mu)  ||d||  lg(rg) alpha_du alpha_pr  ls
  20  3.3332295e+04 8.99e-15 3.93e-01  -8.6 1.70e-01   0.4 1.49e-01 1.00e+00f  1
  21  3.3332249e+04 1.53e-14 5.82e-01  -8.6 9.43e-02   0.8 1.00e+00 1.00e+00f  1
  22  3.3332088e+04 2.24e-14 9.90e-01  -8.6 1.04e+01   0.3 2.78e-02 1.97e-02f  1
  23  3.3331955e+04 1.09e-14 1.23e+00  -8.6 2.84e-01   0.7 8.11e-01 4.23e-01f  1
  24  3.3331879e+04 9.91e-15 1.35e+00  -8.6 9.73e-02   1.2 1.00e+00 6.10e-01f  1
  25  3.3331802e+04 2.43e-14 1.45e+00  -8.6 4.60e-01   0.7 1.63e-01 1.19e-01f  1
  26  3.3331786e+04 1.45e-14 1.47e+00  -8.6 1.26e-01   1.1 4.37e-01 8.65e-02f  1
  27  3.3331780e+04 7.21e-15 1.47e+00  -8.6 3.12e-01   0.6 1.78e-02 1.20e-02f  1
  28  3.3331779e+04 1.45e-14 1.47e+00  -8.6 2.60e+00    -  1.57e-03 3.60e-04f  1
  29  3.3331778e+04 9.75e-15 1.47e+00  -8.6 7.08e-01    -  7.95e-03 5.13e-04f  1
iter    objective    inf_pr   inf_du lg(mu)  ||d||  lg(rg) alpha_du alpha_pr  ls
  30  3.3331777e+04 2.30e-14 1.46e+00  -8.6 3.14e-01    -  1.37e-01 1.48e-03f  1
  31  3.3331776e+04 3.27e-15 1.44e+00  -8.6 7.06e-02    -  4.22e-02 1.46e-02f  1
  32  3.3331776e+04 1.89e-14 1.50e+00  -8.6 3.50e-02    -  1.00e+00 6.59e-03f  1
  33  3.3331775e+04 5.21e-15 1.47e+00  -8.6 1.29e-02    -  7.51e-02 1.94e-02f  1
  34  3.3331775e+04 5.62e-15 1.40e+00  -8.6 8.19e-03    -  3.18e-01 3.66e-02f  1
  35  3.3331774e+04 2.62e-15 1.33e+00  -8.6 4.81e-03    -  2.86e-01 4.85e-02f  1
  36  3.3331774e+04 4.09e-15 1.22e+00  -8.6 3.51e-03    -  1.00e+00 6.11e-02f  1
  37  3.3331774e+04 1.03e-14 1.06e+00  -8.6 2.69e-03    -  4.58e-01 1.26e-01f  1
  38  3.3331773e+04 8.67e-15 9.48e-01  -8.6 2.12e-03    -  1.00e+00 1.06e-01f  1
  39  3.3331773e+04 5.69e-15 7.75e-01  -8.6 1.78e-03    -  1.00e+00 1.83e-01f  1
iter    objective    inf_pr   inf_du lg(mu)  ||d||  lg(rg) alpha_du alpha_pr  ls
  40  3.3331772e+04 5.55e-15 5.89e-01  -8.6 1.40e-03    -  1.00e+00 2.40e-01f  1
  41  3.3331772e+04 2.57e-15 4.07e-01  -8.6 1.04e-03    -  1.00e+00 3.08e-01f  1
  42  3.3331772e+04 1.28e-14 2.44e-01  -8.6 7.08e-04    -  1.00e+00 4.02e-01f  1
  43  3.3331771e+04 3.44e-15 9.98e-02  -8.6 4.20e-04    -  1.00e+00 5.90e-01f  1
  44  3.3331771e+04 3.52e-15 2.60e-14  -8.6 1.71e-04    -  1.00e+00 1.00e+00f  1

Number of Iterations....: 44

                                   (scaled)                 (unscaled)
Objective...............:   3.3331770990020726e+04    3.3331770990020726e+04
Dual infeasibility......:   2.5979218776228663e-14    2.5979218776228663e-14
Constraint violation....:   3.5210044755739375e-15    3.5210044755739375e-15
Complementarity.........:   3.5572674145728921e-09    3.5572674145728921e-09
Overall NLP error.......:   3.5572674145728921e-09    3.5572674145728921e-09


Number of objective function evaluations             = 45
Number of objective gradient evaluations             = 45
Number of equality constraint evaluations            = 45
Number of inequality constraint evaluations          = 0
Number of equality constraint Jacobian evaluations   = 45
Number of inequality constraint Jacobian evaluations = 0
Number of Lagrangian Hessian evaluations             = 44
Total CPU secs in IPOPT (w/o function evaluations)   =     15.878
Total CPU secs in NLP function evaluations           =      4.834

EXIT: Optimal Solution Found.

************************ CUTEst statistics ************************


 Package used            :  IPOPT
 Problem                 :  PORTSNQP  
 # variables             =          100000
 # constraints           =               2
 # objective functions   =        0.9100000E+02
 # objective gradients   =        0.4600000E+02
 # objective Hessians    =        0.4500000E+02
 # Hessian-vector prdct  =        0.0000000E+00
 # constraints functions =        0.9200000E+02
 # constraints gradients =        0.4700000E+02
 # constraints Hessians  =        0.4500000E+02
 Exit code               =               0
 Final f                 =        3.3331770990020726D+04
 Bounds feasibility      =        8.3296324013525059D-09
 Set up time             =            0.36 seconds
 Solve time              =           42.02 seconds


******************************************************************

